1	60
15 45	19 47	26 48	47 45	49 46	54 62	56 59	55 49	30 55	31 50	58 40	11 45	41 51	10 50	52 42	53 47	17 51	35 50	23 50	5 51	24 51	44 50	46 46	2 50	37 50	13 47	14 52	48 45	27 51	59 53	3 51	28 47	4 47	29 41	22 49	50 54	12 41	20 51	16 42	21 46	36 57	40 48	34 48	42 53	32 52	57 47	45 55	33 46	43 46	6 41	9 49	38 62	39 46	18 52	1 52	51 51	8 53	25 58	0 58	7 43
